
Gurobi 6.5.2 (win64) logging started 07/22/16 20:29:15


Gurobi 6.5.2 (win64) logging started 07/22/16 20:29:15

Optimize a model with 1217 rows, 588 columns and 3366 nonzeros
Coefficient statistics:
  Matrix range    [6e-08, 6e+02]
  Objective range [1e+00, 1e+00]
  Bounds range    [1e+00, 1e+00]
  RHS range       [6e-06, 1e+03]
Presolve removed 707 rows and 142 columns
Presolve time: 0.01s
Presolved: 510 rows, 446 columns, 2169 nonzeros
Variable types: 271 continuous, 175 integer (175 binary)

Root relaxation: objective 1.329562e+02, 1160 iterations, 0.06 seconds

    Nodes    |    Current Node    |     Objective Bounds      |     Work
 Expl Unexpl |  Obj  Depth IntInf | Incumbent    BestBd   Gap | It/Node Time

     0     0  132.95620    0   90          -  132.95620      -     -    0s
     0     0  140.73767    0   80          -  140.73767      -     -    0s
     0     0  140.74609    0   79          -  140.74609      -     -    0s
     0     0  141.00617    0   79          -  141.00617      -     -    0s
     0     0  141.00617    0   80          -  141.00617      -     -    0s
H    0     0                    1.234034e+07  141.00617   100%     -    0s
     0     0  141.21015    0   81 1.2340e+07  141.21015   100%     -    0s
     0     0  141.21169    0   81 1.2340e+07  141.21169   100%     -    0s
     0     0  141.25975    0   82 1.2340e+07  141.25975   100%     -    0s
H    0     0                     151.0977805  141.25975  6.51%     -    0s
     0     0  141.26094    0   83  151.09778  141.26094  6.51%     -    0s
H    0     0                     150.9679581  141.26094  6.43%     -    0s
     0     0  141.28770    0   85  150.96796  141.28770  6.41%     -    0s
     0     0  141.30036    0   84  150.96796  141.30036  6.40%     -    0s
     0     0  141.38348    0   79  150.96796  141.38348  6.35%     -    0s
H    0     0                     150.2900808  141.38348  5.93%     -    0s
     0     0  141.38492    0   80  150.29008  141.38492  5.93%     -    0s
     0     0  141.38895    0   81  150.29008  141.38895  5.92%     -    0s
     0     0  141.38943    0   79  150.29008  141.38943  5.92%     -    0s
     0     0  141.38943    0   79  150.29008  141.38943  5.92%     -    0s
H    0     0                     149.8706315  141.38943  5.66%     -    0s
     0     0  141.38943    0   59  149.87063  141.38943  5.66%     -    0s
H    0     0                     149.3680926  141.38943  5.34%     -    0s
     0     0  141.40945    0   62  149.36809  141.40945  5.33%     -    0s
H    0     0                     149.3399699  141.40945  5.31%     -    0s
     0     0  141.47179    0   61  149.33997  141.47179  5.27%     -    0s
     0     0  141.65553    0   62  149.33997  141.65553  5.15%     -    0s
     0     0  141.68183    0   62  149.33997  141.68183  5.13%     -    0s
H    0     0                     148.6642067  141.68183  4.70%     -    0s
     0     0  141.81812    0   60  148.66421  141.81812  4.61%     -    0s
     0     0  141.81950    0   62  148.66421  141.81950  4.60%     -    0s
     0     0  141.87406    0   63  148.66421  141.87406  4.57%     -    0s
     0     0  141.87453    0   64  148.66421  141.87453  4.57%     -    0s
     0     0  141.96807    0   63  148.66421  141.96807  4.50%     -    0s
     0     0  141.97154    0   62  148.66421  141.97154  4.50%     -    0s
     0     0  141.98991    0   63  148.66421  141.98991  4.49%     -    0s
     0     0  141.98993    0   64  148.66421  141.98993  4.49%     -    0s
     0     0  142.02107    0   64  148.66421  142.02107  4.47%     -    0s
     0     0  142.02227    0   65  148.66421  142.02227  4.47%     -    0s
H    0     0                     148.5014853  142.02227  4.36%     -    0s
     0     0  142.02227    0   64  148.50149  142.02227  4.36%     -    0s
     0     2  142.02227    0   64  148.50149  142.02227  4.36%     -    0s
*  143   111              37     148.3714275  143.02034  3.61%  17.8    0s
* 1624   794              45     148.3543110  144.36095  2.69%  18.0    2s
* 1716   799              44     148.3472585  144.36095  2.69%  18.3    2s
H 1833   800                     148.2959759  144.36095  2.65%  18.4    2s
H 3050  1183                     148.2848027  145.15517  2.11%  18.4    2s
H 3063  1188                     148.2791631  145.15517  2.11%  18.4    2s
H11349  4848                     148.2627959  146.35143  1.29%  16.0    4s
 12436  5367  147.34669   29   17  148.26280  146.43223  1.23%  15.8    5s
 29550  8594  147.70515   29   79  148.26280  147.18544  0.73%  14.4   11s
 29599  8627  147.18544   24   57  148.26280  147.18544  0.73%  14.4   15s
 41512  8473  148.15653   36   25  148.26280  147.64372  0.42%  14.7   20s
*45732  6534              56     148.2535994  147.79130  0.31%  14.7   21s
*51245  2158              51     148.2447290  148.07250  0.12%  14.5   23s
*52452   537              54     148.2293970  148.14528  0.06%  14.3   23s

Cutting planes:
  Gomory: 5
  MIR: 69
  Flow cover: 96

Explored 53217 nodes (757933 simplex iterations) in 23.57 seconds
Thread count was 8 (of 8 available processors)

Optimal solution found (tolerance 1.00e-04)
Best objective 1.482293970018e+02, best bound 1.482232226031e+02, gap 0.0042%

Wrote requested result file 'H1\instance3\\Results3E_Sol6.lp'

